# Objective value = 1216519
x0min 47
y0min 54
max0H 2
max0V 2
x1min 32
y1min 20
max1H 2
max1V 2
x2min 20
y2min 20
b2_reduceLturns 0
x4min 30
y4min 20
max4H 2
max4V 2
x5min 20
y5min 188
b5_reduceLturns 1
x6min 20
y6min 66
max6H 2
max6V 2
x7min 20
y7min 20
b7_reduceLturns 0
b9 1
x8_BoundBx_hminM 47
y8_BoundBx_vminM 54
x11min 64
y11LdistBeforeGateOut 0
y11LdistBeforeGateIn 0
b13 1
x12_BoundBx_hminM 20
y12_BoundBx_vminM 66
x15min 77
y15LdistBeforeGateOut 0
y15LdistBeforeGateIn 0
x16min 13
y16min 148
max16H 3
max16V 3
x17min 20
y17min 29
max17H 2
max17V 2
x18min 25
y18min 37
max18H 3
max18V 3
x19min 12
y19min 12
b19_reduceLturns 0
x20_BoundBx_hminM 20
y20_BoundBx_vminM 29
x20_BoundBx_hminP 25
y20_BoundBx_vminP 37
x21min 40
y21min 41
max21H 2
max21V 2
x22min 40
y22min 25
max22H 3
max22V 3
x23_BoundBx_hminM 40
y23_BoundBx_vminM 41
x23_BoundBx_hminP 40
y23_BoundBx_vminP 25
x25min 20
y25min 20
max25H 2
max25V 2
x26min 20
y26min 20
b26_reduceLturns 0
x27min 13
y27min 160
max27H 3
max27V 3
x28min 12
y28min 12
b28_reduceLturns 0
x29min 20
y29min 20
max29H 2
max29V 2
x30min 84
y30min 20
b30_reduceLturns 1
x31min 12
y31min 12
max31H 3
max31V 3
x32min 12
y32min 12
max32H 3
max32V 3
x33min 37
y33min 12
b33_reduceLturns 1
x34min 12
y34min 53
b34_reduceLturns 1
x35min 20
y35min 20
max35H 2
max35V 2
x36min 114
y36min 20
b36_reduceLturns 1
x37min 29
y37min 54
max37H 2
max37V 2
x38min 20
y38min 20
max38H 2
max38V 2
x39min 20
y39min 20
b39_reduceLturns 0
x40min 20
y40min 20
x41min 20
y41min 74
b41_reduceLturns 1
max40H 2
max40V 2
x42min 20
y42min 20
b42_reduceLturns 0
b44 1
x43_BoundBx_hminM 29
y43_BoundBx_vminM 54
x_CntsBoundBx28__boundbx_min 67
y_CntsBoundBx28__boundbx_min 90
y15LdistAfterGateOut 0
y15LdistAfterGateIn 0
x46min 20
y46min 20
max46H 2
max46V 2
x47min 32
y47min 20
b47_reduceLturns 1
x48min 12
y48min 14
max48H 3
max48V 3
x49min 30
y49min 12
b49_reduceLturns 1
x50min 20
y50min 20
max50H 2
max50V 2
x51min 20
y51min 79
b51_reduceLturns 1
x52min 29
y52min 54
max52H 1
max52V 2
x53min 30
y53min 20
b53_reduceLturns 1
x54min 93
y54LdistBeforeGateOut 0
y54LdistBeforeGateIn 0
y11LdistAfterGateOut 0
y11LdistAfterGateIn 0
b56 1
x55_BoundBx_hminM 29
y55_BoundBx_vminM 54
x58min 71
y58LdistBeforeGateOut 0
y58LdistBeforeGateIn 0
x59min 13
y59min 148
max59H 3
max59V 3
x60min 12
y60min 12
max60H 3
max60V 3
x61min 37
y61min 12
b61_reduceLturns 1
x62min 12
y62min 38
b62_reduceLturns 1
x63min 32
y63min 20
max63H 2
max63V 2
x64min 50
y64min 20
b64_reduceLturns 1
x65min 37
y65min 25
max65H 3
max65V 3
x66_BoundBx_hminM 32
y66_BoundBx_vminM 20
x66_BoundBx_hminP 37
y66_BoundBx_vminP 25
x68min 13
y68min 156
max68H 3
max68V 3
x69min 12
y69min 12
b69_reduceLturns 0
x70min 20
y70min 20
x71min 20
y71min 78
b71_reduceLturns 1
max70H 2
max70V 2
x72min 20
y72min 66
max72H 2
max72V 2
x73min 20
y73min 20
b73_reduceLturns 0
x74min 29
y74min 54
max74H 1
max74V 2
x75min 20
y75min 20
max75H 2
max75V 2
x76min 20
y76min 116
b76_reduceLturns 1
x77min 20
y77min 20
x78min 20
y78min 20
b78_reduceLturns 0
max77H 2
max77V 2
x79min 20
y79min 20
b79_reduceLturns 0
b81 1
x80_BoundBx_hminM 20
y80_BoundBx_vminM 66
x_CntsBoundBx78__boundbx_min 153
y_CntsBoundBx78__boundbx_min 54
y54LdistAfterGateOut 0
y54LdistAfterGateIn 0
b84 1
x83_BoundBx_hminM 29
y83_BoundBx_vminM 54
x_CntsBoundBx79__boundbx_min 67
y_CntsBoundBx79__boundbx_min 54
y58LdistAfterGateOut 0
y58LdistAfterGateIn 0
width 240
ZERO 0
UM 1
RELAXATION 20000
HGRID_OFFSET 0
VGRID_OFFSET 0
height 520
posNWell 228
yNDiffa 40
yNDiffb 192
yPDiffa 258
yPDiffb 480
yGNDb 72
yVDDa 448
x0b 83
x0a 36
y0b 170
y0a 116
b0_endline_v 1
b0_endline_h 0
x0a2 0
x0b2 85
y0a2 92
y0b2 174
x1b 56
x1a 24
y1b 170
y1a 150
b1_endline_v 1
b1_endline_h 0
x1a2 0
x1b2 58
y1a2 0
y1b2 428
x2b 56
x2a 36
y2b 170
y2a 150
x3b 50
x3a 30
y3b 170
y3a 150
b3_1V 1
b3_2V 0
x3g 40
x3gpos 1
y3g 160
y3gpos 4
x4b 66
x4a 36
y4b 338
y4a 318
b4_endline_v 1
b4_endline_h 0
x4a2 0
x4b2 68
y4a2 251
y4b2 343
x5b 56
x5a 36
y5b 338
y5a 150
x6b 66
x6a 46
y6b 384
y6a 318
b6_endline_v 1
b6_endline_h 0
x6a2 0
x6b2 68
y6a2 314
y6b2 389
x7b 66
x7a 46
y7b 338
y7a 318
x8b 77
x8a 60
y8b 133
y8a 116
x8_BoundBx_a 60
x8_BoundBx_b 77
y8_BoundBx_a 116
y8_BoundBx_b 170
y9a 153
x9b 77
x9a 60
y9b 170
b8_BoundBx__1M 1
b8_BoundBx__2M 0
b8_BoundBx__3M 0
x8_BoundBx_hM 6
y8_BoundBx_vM 0
x_CntsBoundBx0_a 60
x_CntsBoundBx0_b 77
y_CntsBoundBx0_a 116
y_CntsBoundBx0_b 170
b10_v 1
b10_h 0
x10a 58
x10b 79
y10a 90
y10b 186
x11b 122
x11a 58
y11a 90
y11b 186
x12b 66
x12a 49
y12b 341
y12a 324
x12_BoundBx_a 49
x12_BoundBx_b 66
y12_BoundBx_a 324
y12_BoundBx_b 378
y13a 361
x13b 66
x13a 49
y13b 378
b12_BoundBx__1M 0
b12_BoundBx__2M 1
b12_BoundBx__3M 0
x12_BoundBx_hM 0
y12_BoundBx_vM 6
b8_BoundBx__12_BoundBx__1 0
b8_BoundBx__12_BoundBx__2 1
b8_BoundBx__12_BoundBx__3 0
x_CntsBoundBx1_a 49
x_CntsBoundBx1_b 66
y_CntsBoundBx1_a 324
y_CntsBoundBx1_b 378
b14_v 1
b14_h 0
x14a 47
x14b 68
y14a 312
y14b 386
x15b 124
x15a 47
y15a 312
y15b 416
b8_BoundBx__15_1_2 1
b8_BoundBx__15_2_2 0
b8_BoundBx__15_3_2 0
b12_BoundBx__11_1_3 1
b12_BoundBx__11_2_3 0
b12_BoundBx__11_3_3 0
x16b 100
x16a 87
y16b 212
y16a 64
b16_endline_v 1
b16_endline_h 0
x16a2 0
x16b2 103
y16a2 11
y16b2 215
x17b 98
x17a 78
y17b 231
y17a 202
b17_endline_v 1
b17_endline_h 0
x17a2 76
x17b2 100
y17a2 198
y17b2 235
b0_17_1 0
b0_17_2 1
b0_17_3 0
b4_17_1 0
b4_17_2 1
b4_17_3 0
b6_17_1 0
b6_17_2 0
b6_17_3 1
x18b 99
x18a 74
y18b 235
y18a 198
b18_endline_v 1
b18_endline_h 0
x18a2 0
x18b2 102
y18a2 0
y18b2 241
x19b 99
x19a 87
y19b 210
y19a 198
b11_18_1_4 0
b11_18_2_4 0
b11_18_3_4 1
b15_18_1_5 1
b15_18_2_5 0
b15_18_3_5 0
x20b 95
x20a 78
y20b 225
y20a 208
x20_BoundBx_a 78
x20_BoundBx_b 95
y20_BoundBx_a 208
y20_BoundBx_b 225
b20_BoundBx__1M 0
b20_BoundBx__2M 1
b20_BoundBx__3M 0
x20_BoundBx_hM 0
y20_BoundBx_vM 6
b8_BoundBx__20_BoundBx__1 0
b8_BoundBx__20_BoundBx__2 1
b8_BoundBx__20_BoundBx__3 0
b12_BoundBx__20_BoundBx__1 0
b12_BoundBx__20_BoundBx__2 0
b12_BoundBx__20_BoundBx__3 1
b20_BoundBx__1P 0
b20_BoundBx__2P 1
b20_BoundBx__3P 0
x20_BoundBx_hP 4
y20_BoundBx_vP 10
x21b 130
x21a 90
y21b 296
y21a 255
b21_endline_v 0
b21_endline_h 1
x21a2 86
x21b2 134
y21a2 253
y21b2 298
b0_21_1 0
b0_21_2 0
b0_21_3 1
b1_21_1 1
b1_21_2 0
b1_21_3 0
b6_21_1 0
b6_21_2 0
b6_21_3 1
x22b 117
x22a 77
y22b 294
y22a 269
b22_endline_v 1
b22_endline_h 0
x22a2 0
x22b2 120
y22a2 263
y22b2 297
b11_22_1_6 0
b11_22_2_6 0
b11_22_3_6 1
b15_22_1_7 1
b15_22_2_7 0
b15_22_3_7 0
x23b 107
x23a 90
y23b 290
y23a 273
x23_BoundBx_a 90
x23_BoundBx_b 107
y23_BoundBx_a 273
y23_BoundBx_b 290
b23_BoundBx__1M 0
b23_BoundBx__2M 1
b23_BoundBx__3M 0
x23_BoundBx_hM 0
y23_BoundBx_vM 6
b8_BoundBx__23_BoundBx__1 0
b8_BoundBx__23_BoundBx__2 0
b8_BoundBx__23_BoundBx__3 1
b20_BoundBx__23_BoundBx__1 0
b20_BoundBx__23_BoundBx__2 1
b20_BoundBx__23_BoundBx__3 0
b12_BoundBx__23_BoundBx__1 0
b12_BoundBx__23_BoundBx__2 0
b12_BoundBx__23_BoundBx__3 1
b23_BoundBx__1P 1
b23_BoundBx__2P 0
b23_BoundBx__3P 0
x23_BoundBx_hP 10
y23_BoundBx_vP 4
x24b 130
x24a 110
y24b 290
y24a 270
b24_1V 0
b24_2V 1
x21_width 40
y21_width 41
x24g 120
x24gpos 3
y24g 280
y24gpos 7
x25b 66
x25a 46
y25b 338
y25a 318
b25_endline_v 0
b25_endline_h 1
x25a2 0
x25b2 70
y25a2 316
y25b2 340
x26b 66
x26a 46
y26b 338
y26a 318
x27b 89
x27a 76
y27b 442
y27a 282
b27_endline_v 1
b27_endline_h 0
x27a2 0
x27b2 98
y27a2 263
y27b2 445
x28b 89
x28a 77
y28b 294
y28a 282
b11_smallTransWidth 0
b18_16_1_8 0
b18_16_2_8 0
b18_16_3_8 0
b11_LshapeBeforeGate 0
b11_applyS2BeforeGate 0
b16_applyExtraExtBeforeGate 0
b11_LshapeBeforeGateOut 0
b11_LshapeBeforeGateIn 0
b11_LshapeAfterGateIn 1
b11_Ushape 1
b11_LshapeAfterGateOut 1
x11_lastDiffEnc_b 80
b15_smallTransWidth 0
b22_27_1_9 0
b22_27_2_9 0
b22_27_3_9 0
b15_LshapeBeforeGate 0
b15_applyS2BeforeGate 0
b27_applyExtraExtBeforeGate 0
b15_LshapeBeforeGateOut 0
b15_LshapeBeforeGateIn 0
b15_LshapeAfterGateIn 0
b15_Ushape 0
b15_LshapeAfterGateOut 0
x15_lastDiffEnc_b 68
b16_15_1_10 1
b16_15_2_10 0
b16_15_3_10 0
b16_15_1_11 1
b16_15_2_11 0
b16_15_3_11 0
b16_15_1_12 1
b16_15_2_12 0
b16_15_3_12 0
b20_BoundBx__11_1_13 1
b20_BoundBx__11_2_13 0
b20_BoundBx__11_3_13 0
b20_BoundBx__15_1_14 1
b20_BoundBx__15_2_14 0
b20_BoundBx__15_3_14 0
b18_11_1_15 1
b18_11_2_15 0
b18_11_3_15 0
b18_15_1_16 1
b18_15_2_16 0
b18_15_3_16 0
b23_BoundBx__11_1_17 1
b23_BoundBx__11_2_17 0
b23_BoundBx__11_3_17 0
b23_BoundBx__15_1_18 1
b23_BoundBx__15_2_18 0
b23_BoundBx__15_3_18 0
b22_11_1_19 1
b22_11_2_19 0
b22_11_3_19 0
b22_15_1_20 1
b22_15_2_20 0
b22_15_3_20 0
b27_11_1_21 1
b27_11_2_21 0
b27_11_3_21 0
b27_11_1_22 1
b27_11_2_22 0
b27_11_3_22 0
b27_11_1_23 1
b27_11_2_23 0
b27_11_3_23 0
x29b 162
x29a 142
y29b 231
y29a 211
b29_endline_v 1
b29_endline_h 0
x29a2 140
x29b2 164
y29a2 142
y29b2 235
b0_29_1 0
b0_29_2 0
b0_29_3 1
b21_29_1 0
b21_29_2 1
b21_29_3 0
b25_29_1 0
b25_29_2 0
b25_29_3 1
x30b 162
x30a 78
y30b 231
y30a 211
x31b 142
x31a 130
y31b 240
y31a 228
b31_endline_v 0
b31_endline_h 1
x31a2 127
x31b2 145
y31a2 225
y31b2 243
b16_31_1 0
b16_31_2 0
b16_31_3 1
b11_31_1_24 0
b11_31_2_24 0
b11_31_3_24 1
b15_31_1_25 1
b15_31_2_25 0
b15_31_3_25 0
x32b 142
x32a 130
y32b 281
y32a 269
b32_endline_v 1
b32_endline_h 0
x32a2 127
x32b2 145
y32a2 266
y32b2 509
b16_32_1 0
b16_32_2 0
b16_32_3 1
b18_32_1 1
b18_32_2 0
b18_32_3 0
x33b 142
x33a 105
y33b 281
y33a 269
x34b 142
x34a 130
y34b 281
y34a 228
b11_32_1_26 0
b11_32_2_26 0
b11_32_3_26 1
b15_32_1_27 1
b15_32_2_27 0
b15_32_3_27 0
x35b 160
x35a 140
y35b 338
y35a 318
b35_endline_v 0
b35_endline_h 1
x35a2 86
x35b2 164
y35a2 316
y35b2 340
b0_35_1 0
b0_35_2 1
b0_35_3 0
b17_35_1 0
b17_35_2 1
b17_35_3 0
b21_35_1 0
b21_35_2 1
b21_35_3 0
x36b 160
x36a 46
y36b 338
y36a 318
x37b 122
x37a 93
y37b 414
y37a 360
b37_endline_v 0
b37_endline_h 1
x37a2 86
x37b2 126
y37a2 358
y37b2 557
b0_37_1 0
b0_37_2 1
b0_37_3 0
b17_37_1 0
b17_37_2 1
b17_37_3 0
b21_37_1 0
b21_37_2 1
b21_37_3 0
b25_37_1 0
b25_37_2 1
b25_37_3 0
x38b 122
x38a 102
y38b 414
y38a 394
b38_endline_v 1
b38_endline_h 0
x38a2 100
x38b2 124
y38a2 358
y38b2 647
b0_38_1 0
b0_38_2 1
b0_38_3 0
b17_38_1 0
b17_38_2 0
b17_38_3 1
b21_38_1 0
b21_38_2 1
b21_38_3 0
b25_38_1 0
b25_38_2 0
b25_38_3 1
x39b 122
x39a 102
y39b 414
y39a 394
x40b 122
x40a 102
y40b 414
y40a 394
x41b 122
x41a 102
y41b 468
y41a 394
xVDDa 0
xVDDb 230
yVDDb 468
b40_endline_v 1
b40_endline_h 0
x40a2 100
x40b2 124
y40a2 358
y40b2 419
b0_40_1 0
b0_40_2 1
b0_40_3 0
b17_40_1 0
b17_40_2 1
b17_40_3 0
b21_40_1 0
b21_40_2 1
b21_40_3 0
b25_40_1 0
b25_40_2 0
b25_40_3 1
x42b 122
x42a 102
y42b 414
y42a 394
x43b 116
x43a 99
y43b 377
y43a 360
x43_BoundBx_a 99
x43_BoundBx_b 116
y43_BoundBx_a 360
y43_BoundBx_b 414
y44a 397
x44b 116
x44a 99
y44b 414
b43_BoundBx__1M 1
b43_BoundBx__2M 0
b43_BoundBx__3M 0
x43_BoundBx_hM 6
y43_BoundBx_vM 0
b8_BoundBx__43_BoundBx__1 0
b8_BoundBx__43_BoundBx__2 1
b8_BoundBx__43_BoundBx__3 0
b20_BoundBx__43_BoundBx__1 0
b20_BoundBx__43_BoundBx__2 1
b20_BoundBx__43_BoundBx__3 0
b23_BoundBx__43_BoundBx__1 0
b23_BoundBx__43_BoundBx__2 1
b23_BoundBx__43_BoundBx__3 0
b12_BoundBx__43_BoundBx__1 1
b12_BoundBx__43_BoundBx__2 0
b12_BoundBx__43_BoundBx__3 0
x_CntsBoundBx28_a 99
x_CntsBoundBx28_b 116
y_CntsBoundBx28_a 360
y_CntsBoundBx28_b 414
b45_v 0
b45_h 1
x45a 91
x45b 124
y45a 358
y45b 416
y_CntsBoundBx28__boundbx_a 324
y_CntsBoundBx28__boundbx_b 414
b15_LshapeAfterGate 0
b15_applyS2AfterGate 0
b27_applyExtraExtAfterGate 0
b43_BoundBx__11_1_29 1
b43_BoundBx__11_2_29 0
b43_BoundBx__11_3_29 0
x46b 174
x46a 154
y46b 231
y46a 211
b46_endline_v 1
b46_endline_h 0
x46a2 152
x46b2 176
y46a2 185
y46b2 235
b0_46_1 1
b0_46_2 0
b0_46_3 0
b21_46_1 1
b21_46_2 0
b21_46_3 0
b35_46_1 0
b35_46_2 1
b35_46_3 0
b37_46_1 0
b37_46_2 0
b37_46_3 1
b38_46_1 0
b38_46_2 1
b38_46_3 0
b40_46_1 0
b40_46_2 1
b40_46_3 0
x47b 174
x47a 142
y47b 231
y47a 211
x48b 160
x48a 148
y48b 240
y48a 226
b48_endline_v 0
b48_endline_h 1
x48a2 145
x48b2 169
y48a2 145
y48b2 243
b16_48_1 1
b16_48_2 0
b16_48_3 0
b27_48_1 1
b27_48_2 0
b27_48_3 0
x49b 160
x49a 130
y49b 240
y49a 228
b11_48_1_30 0
b11_48_2_30 0
b11_48_3_30 1
b15_48_1_31 1
b15_48_2_31 0
b15_48_3_31 0
x50b 174
x50a 154
y50b 290
y50a 270
b50_endline_v 1
b50_endline_h 0
x50a2 150
x50b2 176
y50a2 92
y50b2 298
b0_50_1 1
b0_50_2 0
b0_50_3 0
b35_50_1 0
b35_50_2 1
b35_50_3 0
b37_50_1 0
b37_50_2 0
b37_50_3 1
b38_50_1 1
b38_50_2 0
b38_50_3 0
b40_50_1 1
b40_50_2 0
b40_50_3 0
x51b 174
x51a 154
y51b 290
y51a 211
x52b 179
x52a 150
y52b 372
y52a 318
b52_endline_v 1
b52_endline_h 0
x52a2 149
x52b2 180
y52a2 310
y52b2 428
b0_52_1 1
b0_52_2 0
b0_52_3 0
b29_52_1 0
b29_52_2 1
b29_52_3 0
b21_52_1 0
b21_52_2 0
b21_52_3 1
b37_52_1 1
b37_52_2 0
b37_52_3 0
b38_52_1 1
b38_52_2 0
b38_52_3 0
b40_52_1 1
b40_52_2 0
b40_52_3 0
x53b 170
x53a 140
y53b 338
y53a 318
x54b 215
x54a 122
y54a 90
y54b 186
y54b_int 136
y54a_int 110
y54a_int_min 26
b11_LshapeAfterGate 1
b11_applyS2AfterGate 1
b16_applyExtraExtAfterGate 0
x55b 173
x55a 156
y55b 335
y55a 318
x55_BoundBx_a 156
x55_BoundBx_b 173
y55_BoundBx_a 318
y55_BoundBx_b 372
y56a 355
x56b 173
x56a 156
y56b 372
b55_BoundBx__1M 1
b55_BoundBx__2M 0
b55_BoundBx__3M 0
x55_BoundBx_hM 6
y55_BoundBx_vM 0
b8_BoundBx__55_BoundBx__1 0
b8_BoundBx__55_BoundBx__2 1
b8_BoundBx__55_BoundBx__3 0
b20_BoundBx__55_BoundBx__1 1
b20_BoundBx__55_BoundBx__2 0
b20_BoundBx__55_BoundBx__3 0
b23_BoundBx__55_BoundBx__1 1
b23_BoundBx__55_BoundBx__2 0
b23_BoundBx__55_BoundBx__3 0
b43_BoundBx__55_BoundBx__1 1
b43_BoundBx__55_BoundBx__2 0
b43_BoundBx__55_BoundBx__3 0
x_CntsBoundBx32_a 156
x_CntsBoundBx32_b 173
y_CntsBoundBx32_a 318
y_CntsBoundBx32_b 372
b57_v 1
b57_h 0
x57a 154
x57b 181
y57a 308
y57b 412
x58b 225
x58a 154
y58a 308
y58b 412
b16_58_1_33 1
b16_58_2_33 0
b16_58_3_33 0
b16_58_1_34 1
b16_58_2_34 0
b16_58_3_34 0
b16_58_1_35 1
b16_58_2_35 0
b16_58_3_35 0
b48_54_1_36 1
b48_54_2_36 0
b48_54_3_36 0
b31_54_1_37 1
b31_54_2_37 0
b31_54_3_37 0
b48_58_1_38 1
b48_58_2_38 0
b48_58_3_38 0
b31_58_1_39 1
b31_58_2_39 0
b31_58_3_39 0
b32_54_1_40 1
b32_54_2_40 0
b32_54_3_40 0
b32_58_1_41 1
b32_58_2_41 0
b32_58_3_41 0
b55_BoundBx__54_1_42 1
b55_BoundBx__54_2_42 0
b55_BoundBx__54_3_42 0
b55_BoundBx__11_1_43 1
b55_BoundBx__11_2_43 0
b55_BoundBx__11_3_43 0
b27_54_1_44 1
b27_54_2_44 0
b27_54_3_44 0
b27_54_1_45 1
b27_54_2_45 0
b27_54_3_45 0
b27_54_1_46 1
b27_54_2_46 0
b27_54_3_46 0
x59b 186
x59a 173
y59b 212
y59a 64
b59_endline_v 0
b59_endline_h 1
x59a2 170
x59b2 189
y59a2 0
y59b2 215
b16_59_1 1
b16_59_2 0
b16_59_3 0
b32_59_1 1
b32_59_2 0
b32_59_3 0
b27_59_1 1
b27_59_2 0
b27_59_3 0
x60b 185
x60a 173
y60b 238
y60a 226
b60_endline_v 0
b60_endline_h 1
x60a2 170
x60b2 188
y60a2 145
y60b2 241
b16_60_1 1
b16_60_2 0
b16_60_3 0
b32_60_1 1
b32_60_2 0
b32_60_3 0
b27_60_1 1
b27_60_2 0
b27_60_3 0
x61b 185
x61a 148
y61b 238
y61a 226
x62b 185
x62a 173
y62b 238
y62a 200
b54_60_1_47 0
b54_60_2_47 0
b54_60_3_47 1
b11_60_1_48 0
b11_60_2_48 1
b11_60_3_48 0
b58_60_1_49 1
b58_60_2_49 0
b58_60_3_49 0
x63b 216
x63a 184
y63b 290
y63a 270
b63_endline_v 1
b63_endline_h 0
x63a2 182
x63b2 232
y63a2 196
y63b2 298
b0_63_1 1
b0_63_2 0
b0_63_3 0
b52_63_1 0
b52_63_2 1
b52_63_3 0
b37_63_1 1
b37_63_2 0
b37_63_3 0
b38_63_1 1
b38_63_2 0
b38_63_3 0
b40_63_1 1
b40_63_2 0
b40_63_3 0
x64b 204
x64a 154
y64b 290
y64a 270
x65b 220
x65a 183
y65b 294
y65a 269
b65_endline_v 0
b65_endline_h 1
x65a2 180
x65b2 224
y65a2 266
y65b2 367
b16_65_1 1
b16_65_2 0
b16_65_3 0
b48_65_1 0
b48_65_2 0
b48_65_3 1
b27_65_1 1
b27_65_2 0
b27_65_3 0
b54_65_1_50 0
b54_65_2_50 0
b54_65_3_50 1
b11_65_1_51 0
b11_65_2_51 1
b11_65_3_51 0
b58_65_1_52 1
b58_65_2_52 0
b58_65_3_52 0
x66b 210
x66a 193
y66b 290
y66a 273
x66_BoundBx_a 193
x66_BoundBx_b 210
y66_BoundBx_a 273
y66_BoundBx_b 290
b66_BoundBx__1M 1
b66_BoundBx__2M 0
b66_BoundBx__3M 0
x66_BoundBx_hM 6
y66_BoundBx_vM 0
b8_BoundBx__66_BoundBx__1 1
b8_BoundBx__66_BoundBx__2 0
b8_BoundBx__66_BoundBx__3 0
b20_BoundBx__66_BoundBx__1 1
b20_BoundBx__66_BoundBx__2 0
b20_BoundBx__66_BoundBx__3 0
b55_BoundBx__66_BoundBx__1 0
b55_BoundBx__66_BoundBx__2 0
b55_BoundBx__66_BoundBx__3 1
b43_BoundBx__66_BoundBx__1 1
b43_BoundBx__66_BoundBx__2 0
b43_BoundBx__66_BoundBx__3 0
b66_BoundBx__1P 1
b66_BoundBx__2P 0
b66_BoundBx__3P 0
x66_BoundBx_hP 10
y66_BoundBx_vP 4
x67b 210
x67a 190
y67b 290
y67a 270
b67_1V 1
b67_2V 0
x67g 200
x67gpos 5
y67g 280
y67gpos 7
x68b 196
x68a 183
y68b 438
y68a 282
b68_endline_v 1
b68_endline_h 0
x68a2 170
x68b2 200
y68a2 268
y68b2 509
b16_68_1 1
b16_68_2 0
b16_68_3 0
b48_68_1 0
b48_68_2 1
b48_68_3 0
b32_68_1 1
b32_68_2 0
b32_68_3 0
b27_68_1 1
b27_68_2 0
b27_68_3 0
x69b 195
x69a 183
y69b 294
y69a 282
b54_smallTransWidth 0
b60_59_1_53 0
b60_59_2_53 0
b60_59_3_53 0
b54_LshapeBeforeGate 1
b54_applyS2BeforeGate 1
b59_applyExtraExtBeforeGate 0
b54_LshapeBeforeGateOut 1
b54_LshapeBeforeGateIn 1
b54_LshapeAfterGateIn 0
b54_Ushape 0
b54_LshapeAfterGateOut 0
x54_lastDiffEnc_b 122
b58_smallTransWidth 0
b65_68_1_54 0
b65_68_2_54 0
b65_68_3_54 0
b58_LshapeBeforeGate 0
b58_applyS2BeforeGate 0
b68_applyExtraExtBeforeGate 0
b58_LshapeBeforeGateOut 0
b58_LshapeBeforeGateIn 0
b58_LshapeAfterGateIn 0
b58_Ushape 0
b58_LshapeAfterGateOut 0
x58_lastDiffEnc_b 181
b59_58_1_55 1
b59_58_2_55 0
b59_58_3_55 0
b16_58_1_56 1
b16_58_2_56 0
b16_58_3_56 0
b59_58_1_57 1
b59_58_2_57 0
b59_58_3_57 0
b16_58_1_58 1
b16_58_2_58 0
b16_58_3_58 0
b59_58_1_59 1
b59_58_2_59 0
b59_58_3_59 0
b16_58_1_60 1
b16_58_2_60 0
b16_58_3_60 0
b60_54_1_61 1
b60_54_2_61 0
b60_54_3_61 0
b48_54_1_62 1
b48_54_2_62 0
b48_54_3_62 0
b60_58_1_63 1
b60_58_2_63 0
b60_58_3_63 0
b48_58_1_64 1
b48_58_2_64 0
b48_58_3_64 0
b66_BoundBx__54_1_65 1
b66_BoundBx__54_2_65 0
b66_BoundBx__54_3_65 0
b66_BoundBx__11_1_66 1
b66_BoundBx__11_2_66 0
b66_BoundBx__11_3_66 0
b66_BoundBx__58_1_67 1
b66_BoundBx__58_2_67 0
b66_BoundBx__58_3_67 0
b65_54_1_68 1
b65_54_2_68 0
b65_54_3_68 0
b32_54_1_69 1
b32_54_2_69 0
b32_54_3_69 0
b65_58_1_70 1
b65_58_2_70 0
b65_58_3_70 0
b32_58_1_71 1
b32_58_2_71 0
b32_58_3_71 0
b68_54_1_72 1
b68_54_2_72 0
b68_54_3_72 0
b27_54_1_73 1
b27_54_2_73 0
b27_54_3_73 0
b68_54_1_74 1
b68_54_2_74 0
b68_54_3_74 0
b27_54_1_75 1
b27_54_2_75 0
b27_54_3_75 0
b68_54_1_76 1
b68_54_2_76 0
b68_54_3_76 0
b27_54_1_77 1
b27_54_2_77 0
b27_54_3_77 0
x70b 216
x70a 196
y70b 130
y70a 110
x71b 216
x71a 196
y71b 130
y71a 52
xGNDb 216
xGNDa 0
yGNDa 0
b70_endline_v 1
b70_endline_h 0
x70a2 194
x70b2 218
y70a2 0
y70b2 134
b0_70_1 1
b0_70_2 0
b0_70_3 0
b46_70_1 0
b46_70_2 1
b46_70_3 0
b63_70_1 0
b63_70_2 1
b63_70_3 0
b52_70_1 0
b52_70_2 1
b52_70_3 0
b37_70_1 1
b37_70_2 0
b37_70_3 0
b38_70_1 1
b38_70_2 0
b38_70_3 0
b40_70_1 1
b40_70_2 0
b40_70_3 0
x72b 216
x72a 196
y72b 176
y72a 110
b72_endline_v 1
b72_endline_h 0
x72a2 194
x72b2 218
y72a2 0
y72b2 180
b0_72_1 1
b0_72_2 0
b0_72_3 0
b46_72_1 0
b46_72_2 0
b46_72_3 1
b63_72_1 0
b63_72_2 1
b63_72_3 0
b52_72_1 0
b52_72_2 0
b52_72_3 1
b37_72_1 1
b37_72_2 0
b37_72_3 0
b38_72_1 1
b38_72_2 0
b38_72_3 0
b40_72_1 1
b40_72_2 0
b40_72_3 0
x73b 216
x73a 196
y73b 130
y73a 110
x74b 229
x74a 200
y74b 372
y74a 318
b74_endline_v 1
b74_endline_h 0
x74a2 199
x74b2 231
y74a2 310
y74b2 646
b0_74_1 1
b0_74_2 0
b0_74_3 0
b46_74_1 0
b46_74_2 0
b46_74_3 1
b63_74_1 0
b63_74_2 1
b63_74_3 0
b52_74_1 1
b52_74_2 0
b52_74_3 0
b38_74_1 1
b38_74_2 0
b38_74_3 0
x75b 229
x75a 209
y75b 468
y75a 448
b75_endline_v 1
b75_endline_h 0
x75a2 207
x75b2 232
y75a2 310
y75b2 472
b0_75_1 1
b0_75_2 0
b0_75_3 0
b46_75_1 0
b46_75_2 1
b46_75_3 0
b63_75_1 0
b63_75_2 1
b63_75_3 0
b52_75_1 1
b52_75_2 0
b52_75_3 0
b37_75_1 1
b37_75_2 0
b37_75_3 0
x76b 229
x76a 209
y76b 468
y76a 352
x77b 229
x77a 209
y77b 468
y77a 448
x78b 229
x78a 209
y78b 468
y78a 448
b77_endline_v 1
b77_endline_h 0
x77a2 207
x77b2 232
y77a2 328
y77b2 472
b0_77_1 1
b0_77_2 0
b0_77_3 0
b46_77_1 0
b46_77_2 0
b46_77_3 1
b63_77_1 0
b63_77_2 0
b63_77_3 1
b52_77_1 1
b52_77_2 0
b52_77_3 0
b37_77_1 1
b37_77_2 0
b37_77_3 0
b38_77_1 1
b38_77_2 0
b38_77_3 0
x79b 229
x79a 209
y79b 468
y79a 448
x80b 213
x80a 196
y80b 133
y80a 116
x80_BoundBx_a 196
x80_BoundBx_b 213
y80_BoundBx_a 116
y80_BoundBx_b 170
y81a 153
x81b 213
x81a 196
y81b 170
b80_BoundBx__1M 0
b80_BoundBx__2M 1
b80_BoundBx__3M 0
x80_BoundBx_hM 0
y80_BoundBx_vM 6
b8_BoundBx__80_BoundBx__1 1
b8_BoundBx__80_BoundBx__2 0
b8_BoundBx__80_BoundBx__3 0
b20_BoundBx__80_BoundBx__1 1
b20_BoundBx__80_BoundBx__2 0
b20_BoundBx__80_BoundBx__3 0
b66_BoundBx__80_BoundBx__1 0
b66_BoundBx__80_BoundBx__2 1
b66_BoundBx__80_BoundBx__3 0
b55_BoundBx__80_BoundBx__1 0
b55_BoundBx__80_BoundBx__2 1
b55_BoundBx__80_BoundBx__3 0
b43_BoundBx__80_BoundBx__1 0
b43_BoundBx__80_BoundBx__2 1
b43_BoundBx__80_BoundBx__3 0
x_CntsBoundBx78_a 196
x_CntsBoundBx78_b 213
y_CntsBoundBx78_a 116
y_CntsBoundBx78_b 170
b82_v 1
b82_h 0
x82a 194
x82b 215
y82a 96
y82b 186
y_CntsBoundBx78__boundbx_a 116
y_CntsBoundBx78__boundbx_b 170
b54_LshapeAfterGate 0
b54_applyS2AfterGate 0
b59_applyExtraExtAfterGate 0
x83b 223
x83a 206
y83b 335
y83a 318
x83_BoundBx_a 206
x83_BoundBx_b 223
y83_BoundBx_a 318
y83_BoundBx_b 372
y84a 355
x84b 223
x84a 206
y84b 372
b83_BoundBx__1M 1
b83_BoundBx__2M 0
b83_BoundBx__3M 0
x83_BoundBx_hM 6
y83_BoundBx_vM 0
b80_BoundBx__83_BoundBx__1 0
b80_BoundBx__83_BoundBx__2 1
b80_BoundBx__83_BoundBx__3 0
b8_BoundBx__83_BoundBx__1 0
b8_BoundBx__83_BoundBx__2 1
b8_BoundBx__83_BoundBx__3 0
b20_BoundBx__83_BoundBx__1 1
b20_BoundBx__83_BoundBx__2 0
b20_BoundBx__83_BoundBx__3 0
b66_BoundBx__83_BoundBx__1 0
b66_BoundBx__83_BoundBx__2 1
b66_BoundBx__83_BoundBx__3 0
b55_BoundBx__83_BoundBx__1 1
b55_BoundBx__83_BoundBx__2 0
b55_BoundBx__83_BoundBx__3 0
x_CntsBoundBx79_a 206
x_CntsBoundBx79_b 223
y_CntsBoundBx79_a 318
y_CntsBoundBx79_b 372
b85_v 1
b85_h 0
x85a 204
x85b 225
y85a 308
y85b 412
y_CntsBoundBx79__boundbx_a 318
y_CntsBoundBx79__boundbx_b 372
b58_LshapeAfterGate 0
b58_applyS2AfterGate 0
b68_applyExtraExtAfterGate 0
b80_BoundBx__58_1_80 1
b80_BoundBx__58_2_80 0
b80_BoundBx__58_3_80 0
b83_BoundBx__54_1_81 1
b83_BoundBx__54_2_81 0
b83_BoundBx__54_3_81 0
width_gpos 6
+ 0
- 0
20 0
12 0
0.500000 0
2.000000 0
